x04m01e2t24tp2_02
4316
4323
4323
4323
4323
4323
4345
4449
4595
4595
4595
4595
4595
4595
4595
4603
4681
4687
4776
4776
4776
4776
4776
4828
4828
4828
4828
4828
4828
4912
4912
4912
4912
4912
4912
4912
4912
4912
4912
4912
4912
4912
4912
4912
4912
4912
4912
4912
4912
4912
4912
4912
4912
4912
4912
4912
4912
4912
4912
4977
4977
4977
4977
4977
4977
4977
4977
4977
4977
4977
4977
4977
4977
4977
4977
4977
4977
4977
4977
4977
4977
4977
4977
4977
4977
4977
4977
4977
4977
4977
4977
4977
4977
4977
4977
4977
4977
4977
4977
4977
4977
4977
4977
4977
4977
4977
4977
4977
4977
4977
4977
4977
4977
4977
4977
4977
4977
4977
4977
4977
4977
4977
4977
4977
4977
4977
4977
4977
4977
4977
4977
4977
4977
4977
4977
4977
4977
4977
4977
4977
4977
4977
4977
4977
4977
4981
4981
4981
4981
4981
4981
4981
4981
4981
4981
4981
4981
4981
4981
4981
4981
4981
4981
4981
4981
4981
4981
4981
4981
4981
4981
4981
4981
4981
4981
4981
4981
4981
4981
4981
4981
4981
4981
4981
4981
4981
4981
4981
4981
4981
4981
4981
4981
4981
4981
4981
4981
4981
4981
4981
4981
4981
4981
4981
4981
4981
4981
4981
4981
4981
4981
4981
4981
4981
4981
4981
4981
4981
4981
4981
4981
4981
4981
4981
4981
4981
4981
4981
4981
4981
4981
4981
4981
4981
4981
4981
4981
4981
4981
4981
4981
4981
4981
4981
4981
4985
4985
4985
4985
4985
4985
4985
4985
4985
4985
4985
4985
4985
4985
4985
4985
4985
4985
4985
4985
4985
4985
4985
4985
4985
4985
4985
4985
4985
4985
4985
4985
4985
4985
4985
4985
4985
4985
4985
4985
4985
4985
4985
4985
4985
4985
4985
4985
4985
4985
4985
4985
4985
4985
4985
4985
4985
4985
4985
4985
4985
4985
4985
4985
4985
4985
4985
4985
4985
4985
4985
4985
4985
4985
4985
4985
4985
4985
4985
4985
4985
4985
4985
4985
4985
4985
4985
4985
4985
4985
4985
4985
4985
4985
4985
4985
4985
4985
4985
4985
4985
4985
4985
4985
4985
4985
4985
4985
4985
4985
4985
4985
4985
4985
4985
4985
4985
4985
4985
4985
4985
4985
4985
4985
4985
4985
4985
4985
4985
4985
4985
4985
4985
4985
4985
4985
4985
4985
4985
4985
4985
4985
4985
4985
4985
4985
4985
4985
4985
4985
4985
4985
4985
4985
4985
4985
4985
4985
4985
4985
4985
4985
4985
4985
4985
4985
4985
4985
4985
4985
4985
4985
4985
4985
4985
4985
4985
4985
4985
4985
4985
4985
4985
4985
4985
4985
4985
4985
4985
4985
4985
4985
4985
4985
4985
4985
4985
4985
4985
4985
4985
4985
4985
4985
4985
4985
4985
4985
4985
4985
4985
4985
4985
4985
4985
4985
4985
4985
4985
4985
4985
4985
4985
4985
4985
4985
4985
4985
4985
4985
4985
4985
4985
4985
4985
4985
4985
4985
4985
4985
4985
4985
4985
4985
4985
4985
4985
4985
4985
4985
4985
4985
4985
4985
4985
4985
4985
4985
4985
4985
4985
4985
4985
4985
4985
4985
4985
4985
4985
4985
4985
4985
4985
4985
4985
4985
4985
4985
4985
4985
4985
4985
4985
4985
4985
4985
4985
4985
4985
4985
4985
4985
4985
4985
4985
4985
4985
4985
4985
4985
4985
4985
4985
4985
4985
4985
4985
4985
4985
4985
4985
4985
4985
4985
4985
4985
4985
4985
4985
4985
4985
4985
4985
4985
4985
4985
4985
4985
4985
4985
4985
4985
4985
4985
4985
4985
4985
4985
4985
4985
4985
4985
4985
4985
4985
4985
4985
4985
4985
4985
4985
4985
4985
4985
4985
4985
4985
4985
4985
4985
4985
4985
4985
4985
4985
4985
4985
4985
4985
4985
4985
4985
4985
4985
4985
4985
4985
4985
4985
4985
4985
4985
4985
4985
4985
4985
4985
4985
4985
4985
4985
4985
4985
4985
4985
4985
4985
4985
4985
4985
4985
4985
4985
4985
4985
4985
4985
4985
4985
4985
4985
4985
4985
4985
4985
4985
4985
4985
4985
4985
4985
4985
4985
4985
4985
4985
4985
4985
4985
4985
4985
4985
4985
4985
4985
4985
4985
4985
4985
4985
4985
4985
4985
4985
4985
4985
4985
4985
4985
4985
4985
4985
4985
4985
4985
4985
4985
4985
4985
4985
4985
4985
4985
4985
4985
4985
4985
4985
4985
4985
4985
4985
4985
4985
4985
4985
4985
4985
4985
4985
4985
4985
4985
4985
4985
4985
4985
4985
4985
4985
4985
4985
4985
4985
4985
4985
4985
4985
4985
4985
4985
4985
4985
4985
4985
4985
4985
4985
4985
4985
4985
4985
4985
4985
4985
4985
4985
4985
4985
4985
4985
4985
4985
4985
4985
4985
4985
4985
4985
4985
4985
4985
4985
4985
4985
4985
4985
4985
4985
4985
4985
4985
4985
4985
4985
4985
4985
4985
4985
4985
4985
4985
4985
4985
4985
4985
4985
4985
4985
4985
4985
4985
4985
4985
4985
4985
4985
4985
4985
4985
4985
4985
4985
4985
4985
4985
4985
4985
4985
4985
4985
4985
4985
4985
4985
4985
4985
4985
4985
4985
4985
4985
4985
4985
4985
4985
4985
4985
4985
4985
4985
4985
4985
4985
4985
4985
4985
4985
4985
4985
4985
4985
4985
4985
4985
4985
4985
4985
4985
4985
4985
4985
4985
4985
4985
4985
4985
4985
4985
4985
4985
4985
4985
4985
4985
4985
4985
4985
4985
4985
4985
4985
4985
4985
4985
4985
4985
4985
4985
4985
4985
4985
4985
4985
4985
4985
4985
4985
4985
4985
4985
4985
4985
4985
4985
4985
4985
4985
4985
4985
4985
4985
4985
4985
4985
4985
4985
4985
4985
4985
4985
4985
4985
4985
4985
4985
4985
4985
4985
4985
4985
4985
4985
4985
4985
4985
4985
4985
4985
4985
4985
4985
4985
4985
4985
4985
4985
4985
4985
4985
4985
4985
4985
4985
4985
4985
4985
4985
4985
4985
4985
4985
4985
4985
4985
4985
4985
4985
4985
4985
4985
4985
4985
4985
4985
4985
4985
4985
4985
4985
4985
4985
4985
4985
4985
4985
4985
4985
4985
4985
4985
4985
4985
4985
4985
